Route #1: 1 18 73 59 39 70 68 44 22 53 1
Route #2: 1 2 25 57 3 28 48 64 50 1
Route #3: 1 17 67 61 19 69 15 42 37 5 56 20 29 14 62 11 1
Route #4: 1 78 24 45 27 12 65 41 54 26 1
Route #5: 1 58 8 33 77 74 46 35 72 32 1
Route #6: 1 6 31 38 71 30 76 66 1
Route #7: 1 43 7 63 51 75 10 1
Route #8: 1 52 16 13 47 9 23 1
Route #9: 1 4 55 21 36 60 34 1
Route #10: 1 40 49 1
cost 1428.0156334103508
